h -2 0
702752920214387732 -3 0
h -2 4 0
4040396155737009125 -4 0
h 7 6 0
8831539921231301332 -7 0
2691701071209146041 -8 0
h -9 -2 6 -10 0
h -6 11 0
h 12 0
h 2 11 0
h -1 0
h 5 11 0
h 11 10 0
2028845280456358810 -11 0
h 9 -5 0
h 15 9 0
151508724861348575 -16 0
